Maximize
 obj: 0 X1
Subject To
 c1:
  + 1 X116 + 1 X60 + 1 X165 + 1 X18 + 1 X28 + 1 X19 + 1 X25 + 1 X123
  + 1 X3 + 1 X44 + 1 X34 + 1 X161 + 1 X131 + 1 X105 + 1 X21 + 1 X139
  <= 1
 c2:
  + 1 X160 + 1 X31 + 1 X121 + 1 X22 + 1 X73 + 1 X149 + 1 X74 + 1 X130
  + 1 X83 + 1 X98 + 1 X153 + 1 X139 + 1 X81 + 1 X173 + 1 X137 + 1 X45
  + 1 X10 + 1 X77 + 1 X146
  <= 1
 c3:
  + 1 X103 + 1 X81 + 1 X58 + 1 X64 + 1 X46 + 1 X170 + 1 X78 + 1 X131
  + 1 X116 + 1 X80 + 1 X62 + 1 X160
  <= 1
 c4:
  + 1 X50 + 1 X175 + 1 X98 + 1 X158 + 1 X78 + 1 X104 + 1 X56 + 1 X161
  + 1 X46 + 1 X47 + 1 X127 + 1 X72 + 1 X95 + 1 X133 + 1 X171
  <= 1
 c5:
  + 1 X14 + 1 X134 + 1 X92 + 1 X50 + 1 X45 + 1 X167 + 1 X30
  <= 1
 c6:
  + 1 X89 + 1 X116 + 1 X174
  <= 1
 c7:
  + 1 X82 + 1 X162 + 1 X73 + 1 X27 + 1 X100 + 1 X95 + 1 X122 + 1 X48
  + 1 X21 + 1 X46 + 1 X90 + 1 X117 + 1 X159 + 1 X120 + 1 X38
  <= 1
 c8:
  + 1 X35 + 1 X64 + 1 X128 + 1 X174 + 1 X75 + 1 X54 + 1 X44 + 1 X14
  + 1 X52 + 1 X39 + 1 X43 + 1 X9 + 1 X59 + 1 X82 + 1 X162 + 1 X63
  + 1 X25
  <= 1
 c9:
  + 1 X113 + 1 X93
  <= 1
 c10:
  + 1 X7 + 1 X172 + 1 X27 + 1 X117 + 1 X42 + 1 X147 + 1 X73 + 1 X76
  + 1 X166 + 1 X92 + 1 X132 + 1 X152 + 1 X5 + 1 X107 + 1 X159 + 1 X55
  + 1 X3 + 1 X113 + 1 X75
  <= 1
 c11:
  + 1 X89 + 1 X131 + 1 X26 + 1 X78 + 1 X124 + 1 X122 + 1 X154 + 1 X92
  + 1 X14 + 1 X35 + 1 X36 + 1 X31 + 1 X3 + 1 X2 + 1 X49
  <= 1
 c12:
  + 1 X61 + 1 X132 + 1 X103 + 1 X15 + 1 X31 + 1 X88 + 1 X98 + 1 X55
  <= 1
 c13:
  + 1 X84 + 1 X96 + 1 X17 + 1 X115 + 1 X116 + 1 X173 + 1 X36 + 1 X164
  + 1 X123 + 1 X160 + 1 X107 + 1 X87 + 1 X144 + 1 X35 + 1 X86 + 1 X27
  + 1 X172
  <= 1
 c14:
  + 1 X160 + 1 X162 + 1 X103 + 1 X137
  <= 1
 c15:
  + 1 X65 + 1 X79 + 1 X108 + 1 X144 + 1 X92 + 1 X1 + 1 X24 + 1 X165
  + 1 X154 + 1 X99 + 1 X90 + 1 X87 + 1 X152 + 1 X27 + 1 X81 + 1 X19
  + 1 X175 + 1 X115
  <= 1
 c16:
  + 1 X52 + 1 X35 + 1 X137 + 1 X79 + 1 X75 + 1 X64 + 1 X145 + 1 X51
  <= 1
 c17:
  + 1 X116 + 1 X45 + 1 X114 + 1 X106
  <= 1
 c18:
  + 1 X9 + 1 X41 + 1 X40 + 1 X161 + 1 X8 + 1 X123 + 1 X59 + 1 X103
  + 1 X132 + 1 X58 + 1 X91
  <= 1
 c19:
  + 1 X111 + 1 X77 + 1 X132 + 1 X126 + 1 X172 + 1 X133 + 1 X55 + 1 X59
  + 1 X18 + 1 X158 + 1 X15 + 1 X31 + 1 X51 + 1 X151 + 1 X83 + 1 X145
  + 1 X56
  <= 1
 c20:
  + 1 X61 + 1 X113 + 1 X157 + 1 X6 + 1 X122 + 1 X33 + 1 X68 + 1 X117
  + 1 X118 + 1 X50 + 1 X10 + 1 X23
  <= 1
 c21:
  + 1 X35 + 1 X67 + 1 X60 + 1 X127 + 1 X115 + 1 X61 + 1 X110 + 1 X154
  + 1 X120
  <= 1
 c22:
  + 1 X5 + 1 X78 + 1 X118 + 1 X53 + 1 X33 + 1 X10 + 1 X99 + 1 X122
  + 1 X7 + 1 X156 + 1 X174 + 1 X31 + 1 X104 + 1 X19 + 1 X132 + 1 X102
  + 1 X111 + 1 X44 + 1 X83 + 1 X48
  <= 1
 c23:
  + 1 X72 + 1 X138 + 1 X142
  <= 1
 c24:
  + 1 X1 + 1 X28 + 1 X73 + 1 X130 + 1 X143 + 1 X16 + 1 X63 + 1 X123
  + 1 X48 + 1 X161 + 1 X35 + 1 X153 + 1 X13 + 1 X163 + 1 X88 + 1 X106
  + 1 X140 + 1 X89
  <= 1
 c25:
  + 1 X42 + 1 X76 + 1 X47 + 1 X31
  <= 1
 c26:
  + 1 X41 + 1 X130 + 1 X89
  <= 1
 c27:
  + 1 X47 + 1 X97 + 1 X16 + 1 X147 + 1 X159 + 1 X124 + 1 X74
  <= 1
 c28:
  + 1 X98 + 1 X12 + 1 X6 + 1 X22 + 1 X97 + 1 X43 + 1 X172 + 1 X28
  + 1 X45 + 1 X157 + 1 X111 + 1 X36 + 1 X126 + 1 X134 + 1 X151 + 1 X21
  + 1 X165 + 1 X162 + 1 X3
  <= 1
 c29:
  + 1 X7 + 1 X86 + 1 X142 + 1 X125 + 1 X97 + 1 X99 + 1 X114 + 1 X81
  + 1 X82 + 1 X94 + 1 X64 + 1 X164 + 1 X127 + 1 X141
  <= 1
 c30:
  + 1 X18 + 1 X57 + 1 X102 + 1 X139
  <= 1
 c31:
  + 1 X120 + 1 X59 + 1 X2
  <= 1
 c32:
  + 1 X75 + 1 X155 + 1 X82 + 1 X104 + 1 X46 + 1 X10 + 1 X117 + 1 X113
  + 1 X157
  <= 1
 c33:
  + 1 X87 + 1 X153 + 1 X5 + 1 X85 + 1 X78
  <= 1
 c34:
  + 1 X123 + 1 X69 + 1 X132 + 1 X91 + 1 X146 + 1 X87 + 1 X24 + 1 X85
  + 1 X129 + 1 X31 + 1 X131 + 1 X12 + 1 X14 + 1 X167 + 1 X76 + 1 X37
  + 1 X97 + 1 X135 + 1 X28
  <= 1
 c35:
  + 1 X101 + 1 X45 + 1 X92 + 1 X28 + 1 X11 + 1 X132 + 1 X129 + 1 X104
  + 1 X158 + 1 X116 + 1 X145
  <= 1
 obj1:
  + 84 X1 + 49 X2 + 52 X3 + 66 X4 + 61 X5 + 53 X6 + 40 X7 + 72 X8
  + 83 X9 + 51 X10 + 12 X11 + 18 X12 + 13 X13 + 79 X14 + 43 X15 + 4 X16
  + 22 X17 + 5 X18 + 43 X19 + 60 X20 + 69 X21 + 21 X22 + 42 X23 + 40 X24
  + 53 X25 + 19 X26 + 29 X27 + 44 X28 + 38 X29 + 62 X30 + 62 X31 + 14 X32
  + 10 X33 + 63 X34 + 35 X35 + 94 X36 + 89 X37 + 60 X38 + 45 X39 + 42 X40
  + 14 X41 + 59 X42 + 54 X43 + 61 X44 + 38 X45 + 23 X46 + 44 X47 + 91 X48
  + 58 X49 + 31 X50 + 65 X51 + 7 X52 + 23 X53 + 92 X54 + 29 X55 + 10 X56
  + 90 X57 + 49 X58 + 45 X59 + 70 X60 + 5 X61 + 73 X62 + 15 X63 + 84 X64
  + 3 X65 + 46 X66 + 96 X67 + 50 X68 + 63 X69 + 28 X70 + 95 X71 + 87 X72
  + 13 X73 + 11 X74 + 91 X75 + 94 X76 + 38 X77 + 34 X78 + 4 X79 + 33 X80
  + 83 X81 + 92 X82 + 12 X83 + 57 X84 + 81 X85 + 18 X86 + 76 X87 + 64 X88
  + 25 X89 + 13 X90 + 8 X91 + 1 X92 + 91 X93 + 85 X94 + 76 X95 + 22 X96
  + 24 X97 + 15 X98 + 68 X99 + 64 X100 + 71 X101 + 12 X102 + 41 X103 + 46 X104
  + 89 X105 + 99 X106 + 15 X107 + 17 X108 + 50 X109 + 20 X110 + 52 X111 + 60 X112
  + 58 X113 + 37 X114 + 43 X115 + 39 X116 + 78 X117 + 83 X118 + 8 X119 + 83 X120
  + 40 X121 + 84 X122 + 66 X123 + 17 X124 + 16 X125 + 56 X126 + 16 X127 + 74 X128
  + 93 X129 + 55 X130 + 95 X131 + 68 X132 + 100 X133 + 94 X134 + 4 X135 + 82 X136
  + 3 X137 + 15 X138 + 34 X139 + 86 X140 + 71 X141 + 60 X142 + 35 X143 + 83 X144
  + 69 X145 + 56 X146 + 41 X147 + 91 X148 + 23 X149 + 89 X150 + 65 X151 + 19 X152
  + 93 X153 + 100 X154 + 18 X155 + 46 X156 + 3 X157 + 77 X158 + 55 X159 + 38 X160
  + 96 X161 + 88 X162 + 41 X163 + 54 X164 + 95 X165 + 6 X166 + 64 X167 + 72 X168
  + 31 X169 + 83 X170 + 94 X171 + 90 X172 + 8 X173 + 50 X174 + 9 X175
  >= 1
 obj2:
  + 89 X1 + 20 X2 + 61 X3 + 48 X4 + 4 X5 + 70 X6 + 1 X7 + 47 X8
  + 34 X9 + 94 X10 + 33 X11 + 19 X12 + 68 X13 + 87 X14 + 82 X15 + 84 X16
  + 34 X17 + 2 X18 + 72 X19 + 2 X20 + 27 X21 + 2 X22 + 83 X23 + 55 X24
  + 22 X25 + 30 X26 + 79 X27 + 52 X28 + 51 X29 + 91 X30 + 22 X31 + 8 X32
  + 51 X33 + 78 X34 + 82 X35 + 89 X36 + 97 X37 + 49 X38 + 73 X39 + 22 X40
  + 67 X41 + 11 X42 + 83 X43 + 29 X44 + 57 X45 + 69 X46 + 38 X47 + 55 X48
  + 21 X49 + 75 X50 + 73 X51 + 2 X52 + 31 X53 + 75 X54 + 29 X55 + 59 X56
  + 43 X57 + 24 X58 + 61 X59 + 28 X60 + 89 X61 + 73 X62 + 49 X63 + 34 X64
  + 67 X65 + 17 X66 + 52 X67 + 12 X68 + 72 X69 + 1 X70 + 4 X71 + 20 X72
  + 3 X73 + 83 X74 + 93 X75 + 19 X76 + 48 X77 + 8 X78 + 36 X79 + 89 X80
  + 82 X81 + 16 X82 + 39 X83 + 97 X84 + 60 X85 + 31 X86 + 84 X87 + 75 X88
  + 90 X89 + 29 X90 + 77 X91 + 71 X92 + 9 X93 + 21 X94 + 33 X95 + 23 X96
  + 86 X97 + 78 X98 + 15 X99 + 94 X100 + 10 X101 + 37 X102 + 68 X103 + 48 X104
  + 12 X105 + 38 X106 + 68 X107 + 87 X108 + 84 X109 + 12 X110 + 38 X111 + 67 X112
  + 2 X113 + 2 X114 + 49 X115 + 79 X116 + 67 X117 + 73 X118 + 14 X119 + 65 X120
  + 67 X121 + 20 X122 + 92 X123 + 11 X124 + 86 X125 + 20 X126 + 77 X127 + 45 X128
  + 57 X129 + 20 X130 + 5 X131 + 57 X132 + 95 X133 + 47 X134 + 73 X135 + 61 X136
  + 68 X137 + 24 X138 + 13 X139 + 28 X140 + 33 X141 + 66 X142 + 85 X143 + 41 X144
  + 50 X145 + 48 X146 + 15 X147 + 27 X148 + 30 X149 + 33 X150 + 76 X151 + 15 X152
  + 16 X153 + 28 X154 + 12 X155 + 89 X156 + 33 X157 + 25 X158 + 76 X159 + 98 X160
  + 73 X161 + 39 X162 + 82 X163 + 5 X164 + 36 X165 + 47 X166 + 96 X167 + 18 X168
  + 21 X169 + 47 X170 + 15 X171 + 45 X172 + 78 X173 + 24 X174 + 16 X175
  >= 2
 obj3:
  + 12 X1 + 84 X2 + 87 X3 + 50 X4 + 29 X5 + 70 X6 + 72 X7 + 33 X8
  + 54 X9 + 71 X10 + 6 X11 + 10 X12 + 70 X13 + 30 X14 + 67 X15 + 32 X16
  + 75 X17 + 64 X18 + 65 X19 + 21 X20 + 33 X21 + 99 X22 + 76 X23 + 61 X24
  + 86 X25 + 40 X26 + 39 X27 + 10 X28 + 90 X29 + 62 X30 + 66 X31 + 27 X32
  + 91 X33 + 78 X34 + 94 X35 + 60 X36 + 80 X37 + 45 X38 + 79 X39 + 66 X40
  + 48 X41 + 3 X42 + 2 X43 + 76 X44 + 26 X45 + 97 X46 + 20 X47 + 88 X48
  + 81 X49 + 25 X50 + 99 X51 + 60 X52 + 94 X53 + 14 X54 + 74 X55 + 70 X56
  + 15 X57 + 13 X58 + 53 X59 + 53 X60 + 70 X61 + 87 X62 + 49 X63 + 11 X64
  + 34 X65 + 48 X66 + 95 X67 + 29 X68 + 28 X69 + 2 X70 + 25 X71 + 43 X72
  + 58 X73 + 100 X74 + 59 X75 + 40 X76 + 91 X77 + 71 X78 + 92 X79 + 17 X80
  + 51 X81 + 17 X82 + 70 X83 + 8 X84 + 21 X85 + 100 X86 + 45 X87 + 74 X88
  + 64 X89 + 47 X90 + 94 X91 + 93 X92 + 36 X93 + 18 X94 + 76 X95 + 77 X96
  + 45 X97 + 22 X98 + 51 X99 + 80 X100 + 11 X101 + 22 X102 + 26 X103 + 97 X104
  + 2 X105 + 74 X106 + 34 X107 + 31 X108 + 63 X109 + 49 X110 + 54 X111 + 49 X112
  + 13 X113 + 20 X114 + 12 X115 + 37 X116 + 25 X117 + 69 X118 + 21 X119 + 85 X120
  + 58 X121 + 70 X122 + 91 X123 + 83 X124 + 9 X125 + 61 X126 + 64 X127 + 82 X128
  + 83 X129 + 48 X130 + 98 X131 + 89 X132 + 46 X133 + 93 X134 + 53 X135 + 28 X136
  + 14 X137 + 30 X138 + 54 X139 + 45 X140 + 97 X141 + 40 X142 + 21 X143 + 78 X144
  + 30 X145 + 18 X146 + 4 X147 + 89 X148 + 81 X149 + 43 X150 + 64 X151 + 21 X152
  + 50 X153 + 22 X154 + 5 X155 + 25 X156 + 86 X157 + 55 X158 + 28 X159 + 45 X160
  + 40 X161 + 69 X162 + 91 X163 + 33 X164 + 37 X165 + 47 X166 + 35 X167 + 18 X168
  + 88 X169 + 98 X170 + 4 X171 + 58 X172 + 22 X173 + 80 X174 + 20 X175
  >= 3
 obj4:
  + 50 X1 + 62 X2 + 22 X3 + 38 X4 + 60 X5 + 73 X6 + 31 X7 + 71 X8
  + 85 X9 + 38 X10 + 12 X11 + 61 X12 + 37 X13 + 75 X14 + 75 X15 + 18 X16
  + 12 X17 + 7 X18 + 20 X19 + 4 X20 + 96 X21 + 21 X22 + 72 X23 + 5 X24
  + 74 X25 + 2 X26 + 70 X27 + 86 X28 + 28 X29 + 90 X30 + 33 X31 + 2 X32
  + 53 X33 + 9 X34 + 26 X35 + 80 X36 + 18 X37 + 83 X38 + 59 X39 + 48 X40
  + 79 X41 + 54 X42 + 24 X43 + 57 X44 + 63 X45 + 45 X46 + 77 X47 + 29 X48
  + 86 X49 + 17 X50 + 65 X51 + 29 X52 + 79 X53 + 83 X54 + 86 X55 + 5 X56
  + 9 X57 + 50 X58 + 58 X59 + 89 X60 + 2 X61 + 71 X62 + 35 X63 + 84 X64
  + 64 X65 + 64 X66 + 71 X67 + 2 X68 + 19 X69 + 6 X70 + 99 X71 + 30 X72
  + 38 X73 + 96 X74 + 75 X75 + 27 X76 + 57 X77 + 12 X78 + 3 X79 + 97 X80
  + 57 X81 + 12 X82 + 69 X83 + 31 X84 + 88 X85 + 35 X86 + 87 X87 + 37 X88
  + 91 X89 + 50 X90 + 42 X91 + 23 X92 + 65 X93 + 69 X94 + 100 X95 + 61 X96
  + 82 X97 + 97 X98 + 72 X99 + 93 X100 + 44 X101 + 71 X102 + 94 X103 + 61 X104
  + 12 X105 + 62 X106 + 1 X107 + 14 X108 + 91 X109 + 90 X110 + 82 X111 + 59 X112
  + 36 X113 + 86 X114 + 46 X115 + 53 X116 + 48 X117 + 28 X118 + 34 X119 + 18 X120
  + 5 X121 + 21 X122 + 4 X123 + 56 X124 + 26 X125 + 58 X126 + 37 X127 + 51 X128
  + 2 X129 + 14 X130 + 76 X131 + 51 X132 + 50 X133 + 53 X134 + 30 X135 + 84 X136
  + 16 X137 + 48 X138 + 66 X139 + 41 X140 + 58 X141 + 72 X142 + 54 X143 + 1 X144
  + 100 X145 + 58 X146 + 57 X147 + 99 X148 + 31 X149 + 50 X150 + 99 X151 + 62 X152
  + 33 X153 + 14 X154 + 1 X155 + 16 X156 + 46 X157 + 12 X158 + 67 X159 + 93 X160
  + 61 X161 + 58 X162 + 46 X163 + 14 X164 + 8 X165 + 10 X166 + 31 X167 + 80 X168
  + 94 X169 + 62 X170 + 21 X171 + 25 X172 + 72 X173 + 11 X174 + 100 X175
  >= 4
Binary
 X1
 X2
 X3
 X4
 X5
 X6
 X7
 X8
 X9
 X10
 X11
 X12
 X13
 X14
 X15
 X16
 X17
 X18
 X19
 X20
 X21
 X22
 X23
 X24
 X25
 X26
 X27
 X28
 X29
 X30
 X31
 X32
 X33
 X34
 X35
 X36
 X37
 X38
 X39
 X40
 X41
 X42
 X43
 X44
 X45
 X46
 X47
 X48
 X49
 X50
 X51
 X52
 X53
 X54
 X55
 X56
 X57
 X58
 X59
 X60
 X61
 X62
 X63
 X64
 X65
 X66
 X67
 X68
 X69
 X70
 X71
 X72
 X73
 X74
 X75
 X76
 X77
 X78
 X79
 X80
 X81
 X82
 X83
 X84
 X85
 X86
 X87
 X88
 X89
 X90
 X91
 X92
 X93
 X94
 X95
 X96
 X97
 X98
 X99
 X100
 X101
 X102
 X103
 X104
 X105
 X106
 X107
 X108
 X109
 X110
 X111
 X112
 X113
 X114
 X115
 X116
 X117
 X118
 X119
 X120
 X121
 X122
 X123
 X124
 X125
 X126
 X127
 X128
 X129
 X130
 X131
 X132
 X133
 X134
 X135
 X136
 X137
 X138
 X139
 X140
 X141
 X142
 X143
 X144
 X145
 X146
 X147
 X148
 X149
 X150
 X151
 X152
 X153
 X154
 X155
 X156
 X157
 X158
 X159
 X160
 X161
 X162
 X163
 X164
 X165
 X166
 X167
 X168
 X169
 X170
 X171
 X172
 X173
 X174
 X175
End
